Grasp exp. instance_n_15_m_10_id_5.lp tipoLifted 0 szPool 5 nIteration 20 alpha 1 
Academic license - for non-commercial use only
Read LP format model from file ../input/instancesGenerated/instance_n_15_m_10_id_5.lp
Reading time = 0.00 seconds
: 10 rows, 15 columns, 68 nonzeros
Optimize a model with 10 rows, 15 columns and 68 nonzeros
Variable types: 0 continuous, 15 integer (15 binary)
Coefficient statistics:
  Matrix range     [1e+00, 1e+01]
  Objective range  [1e+00, 1e+01]
  Bounds range     [1e+00, 1e+00]
  RHS range        [1e+01, 3e+01]
Found heuristic solution: objective 39.0000000

Explored 0 nodes (0 simplex iterations) in 0.00 seconds
Thread count was 1 (of 8 available processors)

Solution count 1: 39 
No other solutions better than 0

Solution limit reached
Best objective 3.900000000000e+01, best bound -, gap -
C_1:	 10.00 x_3  = 1.000000 + 5.00 x_6  = 0.055509 + 4.00 x_8  = 0.000000 + 4.00 x_9  = 0.430614 + 2.00 x_15  = 0.000000 <= 12.00
C_2:	 4.00 x_5  = 1.000000 + 7.00 x_11  = 0.000000 + 9.00 x_13  = 0.777778 + 3.00 x_15  = 0.000000 <= 11.00
C_3:	 9.00 x_1  = 0.655593 + 4.00 x_3  = 1.000000 + 2.00 x_4  = 0.000000 + 2.00 x_5  = 1.000000 + 7.00 x_6  = 0.055509 + 8.00 x_8  = 0.000000 + 4.00 x_9  = 0.430614 + 4.00 x_10  = 1.000000 + 4.00 x_14  = 0.997161 <= 22.00
C_4:	 8.00 x_2  = 0.000000 + 6.00 x_11  = 0.000000 + 10.00 x_13  = 0.777778 <= 12.00
C_5:	 2.00 x_1  = 0.655593 + 5.00 x_2  = 0.000000 + 9.00 x_4  = 0.000000 + 3.00 x_5  = 1.000000 + 8.00 x_7  = 1.000000 + 10.00 x_8  = 0.000000 + 1.00 x_10  = 1.000000 + 9.00 x_13  = 0.777778 <= 23.00
C_6:	 10.00 x_1  = 0.655593 + 2.00 x_2  = 0.000000 + 8.00 x_3  = 1.000000 + 4.00 x_4  = 0.000000 + 8.00 x_6  = 0.055509 + 10.00 x_7  = 1.000000 + 7.00 x_8  = 0.000000 + 6.00 x_10  = 1.000000 + 8.00 x_15  = 0.000000 <= 31.00
C_7:	 1.00 x_5  = 1.000000 + 5.00 x_6  = 0.055509 + 6.00 x_11  = 0.000000 + 9.00 x_12  = 0.638036 + 7.00 x_14  = 0.997161 + 1.00 x_15  = 0.000000 <= 14.00
C_8:	 4.00 x_1  = 0.655593 + 10.00 x_2  = 0.000000 + 3.00 x_5  = 1.000000 + 10.00 x_7  = 1.000000 + 7.00 x_15  = 0.000000 <= 17.00
C_9:	 3.00 x_1  = 0.655593 + 2.00 x_4  = 0.000000 + 8.00 x_6  = 0.055509 + 4.00 x_8  = 0.000000 + 5.00 x_10  = 1.000000 + 6.00 x_11  = 0.000000 + 1.00 x_12  = 0.638036 + 10.00 x_14  = 0.997161 + 4.00 x_15  = 0.000000 <= 21.00
C_10:	 4.00 x_1  = 0.655593 + 9.00 x_2  = 0.000000 + 2.00 x_3  = 1.000000 + 3.00 x_4  = 0.000000 + 7.00 x_9  = 0.430614 + 10.00 x_10  = 1.000000 + 5.00 x_11  = 0.000000 + 10.00 x_12  = 0.638036 + 6.00 x_14  = 0.997161 + 4.00 x_15  = 0.000000 <= 30.00
Solution initial: 55.810870 
Number Constraints Used in Cover:10
GRASP Method!
Number cuts repeat: 0
value: 49.033333
Number Constraints Used in Cover:19
GRASP Method!
Number cuts repeat: 0
value: 49.033333
Number Constraints Used in Cover:32
GRASP Method!
Number cuts repeat: 2
value: 48.633057
Number Constraints Used in Cover:51
GRASP Method!
Number cuts repeat: 3
value: 48.633057
Number Constraints Used in Cover:68
GRASP Method!
Number cuts repeat: 2
value: 48.633057
Number Constraints Used in Cover:77
GRASP Method!
Number cuts repeat: 2
value: 48.633057
Number Constraints Used in Cover:86
GRASP Method!
Number cuts repeat: 0
value: 48.633057
Number Constraints Used in Cover:90
GRASP Method!
Number cuts repeat: 1
value: 48.633057
Number Constraints Used in Cover:101
GRASP Method!
Number cuts repeat: 3
value: 48.633057
Number Constraints Used in Cover:108
GRASP Method!
Number cuts repeat: 4
value: 48.492913
Number Constraints Used in Cover:125
GRASP Method!
Number cuts repeat: 3
value: 48.492913
Number Constraints Used in Cover:137
GRASP Method!
Number cuts repeat: 4
value: 48.492913
Number Constraints Used in Cover:146
GRASP Method!
Number cuts repeat: 1
value: 48.492913
Number Constraints Used in Cover:157
GRASP Method!
Number cuts repeat: 2
value: 48.492913
Number Constraints Used in Cover:166
GRASP Method!
Number cuts repeat: 1
value: 47.077961
Number Constraints Used in Cover:173
GRASP Method!
Number cuts repeat: 3
value: 47.077961
Number Constraints Used in Cover:180
GRASP Method!
Number cuts repeat: 3
value: 47.077961
Number Constraints Used in Cover:187
GRASP Method!
Number cuts repeat: 3
value: 47.077961
Number Constraints Used in Cover:196
GRASP Method!
Number cuts repeat: 3
value: 47.077961
Number Constraints Used in Cover:210
GRASP Method!
Number cuts repeat: 3
value: 47.061798
Number Constraints Used in Cover:219
GRASP Method!
Number cuts repeat: 0
value: 47.061798
Number Constraints Used in Cover:232
GRASP Method!
Number cuts repeat: 3
value: 46.827586
Number Constraints Used in Cover:246
GRASP Method!
Number cuts repeat: 7
value: 46.827586
Number Constraints Used in Cover:259
GRASP Method!
Number cuts repeat: 5
value: 46.827586
Number Constraints Used in Cover:264
GRASP Method!
Number cuts repeat: 5
value: 46.827586
Number Constraints Used in Cover:274
GRASP Method!
Number cuts repeat: 3
value: 46.827586
Number Constraints Used in Cover:282
GRASP Method!
Number cuts repeat: 4
value: 46.827586
Number Constraints Used in Cover:288
GRASP Method!
Number cuts repeat: 7
value: 46.040541
Number Constraints Used in Cover:298
GRASP Method!
Number cuts repeat: 4
value: 46.040541
Number Constraints Used in Cover:312
GRASP Method!
Number cuts repeat: 4
value: 46.040541
Number Constraints Used in Cover:321
GRASP Method!
Number cuts repeat: 4
value: 46.040541
Number Constraints Used in Cover:329
GRASP Method!
Number cuts repeat: 4
value: 46.040541
Number Constraints Used in Cover:339
GRASP Method!
Number cuts repeat: 5
value: 46.040541
Number Constraints Used in Cover:342
GRASP Method!
Number cuts repeat: 2
value: 46.040541
Number Constraints Used in Cover:349
GRASP Method!
Number cuts repeat: 3
value: 46.040541
Number Constraints Used in Cover:354
GRASP Method!
Number cuts repeat: 3
value: 46.040541
Number Constraints Used in Cover:363
GRASP Method!
Number cuts repeat: 3
value: 46.040541
Number Constraints Used in Cover:371
GRASP Method!
Number cuts repeat: 2
value: 46.040541
Number Constraints Used in Cover:383
GRASP Method!
Number cuts repeat: 3
value: 46.040541
Number Constraints Used in Cover:388
GRASP Method!
Number cuts repeat: 2
value: 46.040541
Number Constraints Used in Cover:393
GRASP Method!
Number cuts repeat: 2
value: 46.040541
Number Constraints Used in Cover:396
GRASP Method!
Number cuts repeat: 3
value: 46.040541
Number Constraints Used in Cover:403
GRASP Method!
Number cuts repeat: 3
value: 46.040541
Number Constraints Used in Cover:407
GRASP Method!
Number cuts repeat: 3
value: 46.040541
Number Constraints Used in Cover:411
GRASP Method!
Number cuts repeat: 3
value: 46.040541
Number Constraints Used in Cover:416
GRASP Method!
Number cuts repeat: 4
value: 46.040541
Number Constraints Used in Cover:419
GRASP Method!
Number cuts repeat: 3
value: 46.040541
Number Constraints Used in Cover:425
GRASP Method!
Number cuts repeat: 3
value: 46.040541
Number Constraints Used in Cover:433
GRASP Method!
Number cuts repeat: 2
value: 46.040541
Number Constraints Used in Cover:443
GRASP Method!
Number cuts repeat: 4
value: 46.040541
Number Constraints Used in Cover:449
GRASP Method!
Number cuts repeat: 3
value: 46.040541
Number Constraints Used in Cover:452
GRASP Method!
Number cuts repeat: 3
value: 46.040541
Number Constraints Used in Cover:456
GRASP Method!
Number cuts repeat: 3
value: 46.040541
Number Constraints Used in Cover:458
GRASP Method!
Number cuts repeat: 0
value: 46.040541
Number Constraints Used in Cover:460
GRASP Method!
Number cuts repeat: 2
value: 46.040541
Number Constraints Used in Cover:461
GRASP Method!
Number cuts repeat: 6
value: 46.040541
Number Constraints Used in Cover:461
GRASP Method!
Number cuts repeat: 4
value: 46.040541
Number Constraints Used in Cover:461
GRASP Method!
Number cuts repeat: 6
value: 46.040541
Number Constraints Used in Cover:462
GRASP Method!
Number cuts repeat: 3
value: 46.040541
Number Constraints Used in Cover:466
GRASP Method!
Number cuts repeat: 4
value: 46.040541
Number Constraints Used in Cover:467
GRASP Method!
Number cuts repeat: 3
value: 46.040541
Number Constraints Used in Cover:470
GRASP Method!
Number cuts repeat: 2
value: 46.040541
Number Constraints Used in Cover:476
GRASP Method!
Number cuts repeat: 3
value: 46.040541
Number Constraints Used in Cover:476
GRASP Method!
Number cuts repeat: 4
value: 46.040541
Number Constraints Used in Cover:479
GRASP Method!
Number cuts repeat: 1
value: 46.040541
Number Constraints Used in Cover:482
GRASP Method!
Number cuts repeat: 4
value: 46.040541
Number Constraints Used in Cover:485
GRASP Method!
Number cuts repeat: 4
value: 46.040541
Number Constraints Used in Cover:492
GRASP Method!
Number cuts repeat: 2
value: 46.040541
Number Constraints Used in Cover:495
GRASP Method!
Number cuts repeat: 2
value: 46.040541
Number Constraints Used in Cover:496
GRASP Method!
Number cuts repeat: 2
value: 46.040541
Number Constraints Used in Cover:498
GRASP Method!
Number cuts repeat: 2
value: 46.040541
Number Constraints Used in Cover:499
GRASP Method!
Number cuts repeat: 3
value: 46.040541
Number Constraints Used in Cover:500
GRASP Method!
Number cuts repeat: 3
value: 46.040541
Number Constraints Used in Cover:502
GRASP Method!
Number cuts repeat: 2
value: 46.040541
Number Constraints Used in Cover:506
GRASP Method!
Number cuts repeat: 3
value: 46.040541
Number Constraints Used in Cover:506
GRASP Method!
Number cuts repeat: 2
value: 46.040541
Number Constraints Used in Cover:506
GRASP Method!
Number cuts repeat: 2
value: 46.040541
Number Constraints Used in Cover:507
GRASP Method!
Number cuts repeat: 3
value: 46.040541
Number Constraints Used in Cover:510
GRASP Method!
Number cuts repeat: 4
value: 46.040541
Number Constraints Used in Cover:510
GRASP Method!
Number cuts repeat: 4
value: 46.040541
Number Constraints Used in Cover:513
GRASP Method!
Number cuts repeat: 1
value: 46.040541
Number Constraints Used in Cover:518
GRASP Method!
Number cuts repeat: 4
value: 46.040541
Number Constraints Used in Cover:518
GRASP Method!
Number cuts repeat: 4
value: 46.040541
Number Constraints Used in Cover:519
GRASP Method!
Number cuts repeat: 2
value: 46.040541
Number Constraints Used in Cover:521
GRASP Method!
Number cuts repeat: 2
value: 46.040541
Number Constraints Used in Cover:521
GRASP Method!
Number cuts repeat: 3
value: 46.040541
Number Constraints Used in Cover:522
GRASP Method!
Number cuts repeat: 5
value: 46.040541
Number Constraints Used in Cover:524
GRASP Method!
Number cuts repeat: 6
value: 46.040541
Number Constraints Used in Cover:524
GRASP Method!
Number cuts repeat: 3
value: 46.040541
Number Constraints Used in Cover:524
GRASP Method!
Number cuts repeat: 3
value: 46.040541
Number Constraints Used in Cover:525
GRASP Method!
Number cuts repeat: 3
value: 46.040541
Number Constraints Used in Cover:526
GRASP Method!
Number cuts repeat: 0
value: 46.040541
Number Constraints Used in Cover:526
GRASP Method!
Number cuts repeat: 1
value: 46.040541
Number Constraints Used in Cover:527
GRASP Method!
Number cuts repeat: 3
value: 46.040541
Number Constraints Used in Cover:529
GRASP Method!
Number cuts repeat: 3
value: 46.040541
Number Constraints Used in Cover:531
GRASP Method!
Number cuts repeat: 3
value: 46.040541
Number Constraints Used in Cover:531
GRASP Method!
Number cuts repeat: 2
value: 46.040541
Number Constraints Used in Cover:531
GRASP Method!
Number cuts repeat: 4
value: 46.040541
Number Constraints Used in Cover:531
GRASP Method!
Number cuts repeat: 2
value: 46.040541
Number Constraints Used in Cover:532
GRASP Method!
Number cuts repeat: 3
value: 46.040541
Number Constraints Used in Cover:532
GRASP Method!
Number cuts repeat: 2
value: 46.040541
Number Constraints Used in Cover:532
GRASP Method!
Number cuts repeat: 3
value: 46.040541
Number Constraints Used in Cover:532
GRASP Method!
Number cuts repeat: 2
value: 46.040541
Number Constraints Used in Cover:533
GRASP Method!
Number cuts repeat: 2
value: 46.040541
Number Constraints Used in Cover:534
GRASP Method!
Number cuts repeat: 1
value: 46.040541
Number Constraints Used in Cover:534
GRASP Method!
Number cuts repeat: 2
value: 46.040541
Number Constraints Used in Cover:535
GRASP Method!
Number cuts repeat: 3
value: 46.040541
Number Constraints Used in Cover:536
GRASP Method!
Number cuts repeat: 4
value: 46.040541
Number Constraints Used in Cover:538
GRASP Method!
Number cuts repeat: 3
value: 46.040541
Number Constraints Used in Cover:539
GRASP Method!
Number cuts repeat: 2
value: 46.040541
Number Constraints Used in Cover:540
GRASP Method!
Number cuts repeat: 3
value: 46.040541
Number Constraints Used in Cover:540
GRASP Method!
Number cuts repeat: 4
value: 46.040541
Number Constraints Used in Cover:540
GRASP Method!
Number cuts repeat: 3
value: 46.040541
Number Constraints Used in Cover:541
GRASP Method!
Number cuts repeat: 1
value: 46.040541
Number Constraints Used in Cover:542
GRASP Method!
Number cuts repeat: 1
value: 46.040541
Number Constraints Used in Cover:542
GRASP Method!
Number cuts repeat: 4
value: 46.040541
Number Constraints Used in Cover:544
GRASP Method!
Number cuts repeat: 4
value: 46.040541
Number Constraints Used in Cover:544
GRASP Method!
Number cuts repeat: 2
value: 46.040541
Number Constraints Used in Cover:545
GRASP Method!
Number cuts repeat: 3
value: 46.040541
Number Constraints Used in Cover:546
GRASP Method!
Number cuts repeat: 2
value: 46.040541
Number Constraints Used in Cover:547
GRASP Method!
Number cuts repeat: 3
value: 46.040541
Number Constraints Used in Cover:547
GRASP Method!
Number cuts repeat: 1
value: 46.040541
Number Constraints Used in Cover:548
GRASP Method!
Number cuts repeat: 2
value: 46.040541
Number Constraints Used in Cover:549
GRASP Method!
Number cuts repeat: 1
value: 46.040541
Number Constraints Used in Cover:549
GRASP Method!
Number cuts repeat: 3
value: 46.040541
Number Constraints Used in Cover:549
GRASP Method!
Number cuts repeat: 2
value: 46.040541
Number Constraints Used in Cover:549
GRASP Method!
Number cuts repeat: 1
value: 46.040541
Number Constraints Used in Cover:549
GRASP Method!
Number cuts repeat: 2
value: 46.040541
Number Constraints Used in Cover:549
GRASP Method!
Number cuts repeat: 3
value: 46.040541
Number Constraints Used in Cover:549
GRASP Method!
Number cuts repeat: 2
value: 46.040541
Number Constraints Used in Cover:549
GRASP Method!
Number cuts repeat: 3
value: 46.040541
Number Constraints Used in Cover:550
GRASP Method!
Number cuts repeat: 3
value: 46.040541
Number Constraints Used in Cover:551
GRASP Method!
Number cuts repeat: 1
value: 46.040541
Number Constraints Used in Cover:552
GRASP Method!
Number cuts repeat: 2
value: 46.040541
Number Constraints Used in Cover:552
GRASP Method!
Number cuts repeat: 1
value: 46.040541
Number Constraints Used in Cover:553
GRASP Method!
Number cuts repeat: 3
value: 46.040541
Number Constraints Used in Cover:553
GRASP Method!
Number cuts repeat: 3
value: 46.040541
Number Constraints Used in Cover:554
GRASP Method!
Number cuts repeat: 4
value: 46.040541
Number Constraints Used in Cover:554
GRASP Method!
Number cuts repeat: 3
value: 46.040541
Number Constraints Used in Cover:554
GRASP Method!
Number cuts repeat: 3
value: 46.040541
Number Constraints Used in Cover:554
GRASP Method!
Number cuts repeat: 3
value: 46.040541
Number Constraints Used in Cover:554
GRASP Method!
Number cuts repeat: 3
value: 46.040541
Number Constraints Used in Cover:554
GRASP Method!
Number cuts repeat: 3
value: 46.040541
Number Constraints Used in Cover:554
GRASP Method!
Number cuts repeat: 2
value: 46.040541
Number Constraints Used in Cover:554
GRASP Method!
Number cuts repeat: 2
value: 46.040541
Number Constraints Used in Cover:556
GRASP Method!
Number cuts repeat: 4
value: 46.040541
Number Constraints Used in Cover:557
GRASP Method!
Number cuts repeat: 3
value: 46.040541
Number Constraints Used in Cover:557
GRASP Method!
Number cuts repeat: 3
value: 46.040541
Number Constraints Used in Cover:558
GRASP Method!
Number cuts repeat: 4
value: 46.040541
Number Constraints Used in Cover:558
GRASP Method!
Number cuts repeat: 3
value: 46.040541
Number Constraints Used in Cover:558
GRASP Method!
Number cuts repeat: 1
value: 46.040541
Number Constraints Used in Cover:558
GRASP Method!
Number cuts repeat: 4
value: 46.040541
Number Constraints Used in Cover:558
GRASP Method!
Number cuts repeat: 3
value: 46.040541
Number Constraints Used in Cover:558
GRASP Method!
Number cuts repeat: 3
value: 46.040541
Number Constraints Used in Cover:558
GRASP Method!
Number cuts repeat: 3
value: 46.040541
Number Constraints Used in Cover:559
GRASP Method!
Number cuts repeat: 3
value: 46.040541
Number Constraints Used in Cover:559
GRASP Method!
Number cuts repeat: 3
value: 46.040541
Number Constraints Used in Cover:559
GRASP Method!
Number cuts repeat: 2
value: 46.040541
Number Constraints Used in Cover:560
GRASP Method!
Number cuts repeat: 2
value: 46.040541
Number Constraints Used in Cover:561
GRASP Method!
Number cuts repeat: 3
value: 46.040541
Number Constraints Used in Cover:561
GRASP Method!
Number cuts repeat: 3
value: 46.040541
Number Constraints Used in Cover:561
GRASP Method!
Number cuts repeat: 3
value: 46.040541
Number Constraints Used in Cover:561
GRASP Method!
Number cuts repeat: 3
value: 46.040541
Number Constraints Used in Cover:561
GRASP Method!
Number cuts repeat: 3
value: 46.040541
Number Constraints Used in Cover:561
GRASP Method!
Number cuts repeat: 4
value: 46.040541
Number Constraints Used in Cover:561
GRASP Method!
Number cuts repeat: 2
value: 46.040541
Number Constraints Used in Cover:561
GRASP Method!
Number cuts repeat: 2
value: 46.040541
Number Constraints Used in Cover:563
GRASP Method!
Number cuts repeat: 4
value: 46.040541
Number Constraints Used in Cover:565
GRASP Method!
Number cuts repeat: 3
value: 46.040541
Number Constraints Used in Cover:565
GRASP Method!
Number cuts repeat: 2
value: 46.040541
Number Constraints Used in Cover:565
GRASP Method!
Number cuts repeat: 1
value: 46.040541
Number Constraints Used in Cover:565
GRASP Method!
Number cuts repeat: 3
value: 46.040541
Number Constraints Used in Cover:565
GRASP Method!
Number cuts repeat: 3
value: 46.040541
Number Constraints Used in Cover:565
GRASP Method!
Number cuts repeat: 3
value: 46.040541
Number Constraints Used in Cover:565
GRASP Method!
Number cuts repeat: 2
value: 46.040541
Number Constraints Used in Cover:566
GRASP Method!
Number cuts repeat: 2
value: 46.040541
Number Constraints Used in Cover:566
GRASP Method!
Number cuts repeat: 3
value: 46.040541
Number Constraints Used in Cover:566
GRASP Method!
Number cuts repeat: 2
value: 46.040541
Number Constraints Used in Cover:566
GRASP Method!
Number cuts repeat: 4
value: 46.040541
Number Constraints Used in Cover:566
GRASP Method!
Number cuts repeat: 4
value: 46.040541
Number Constraints Used in Cover:567
GRASP Method!
Number cuts repeat: 0
value: 46.040541
Number Constraints Used in Cover:568
GRASP Method!
Number cuts repeat: 5
value: 46.040541
Number Constraints Used in Cover:568
GRASP Method!
Number cuts repeat: 3
value: 46.040541
Number Constraints Used in Cover:570
GRASP Method!
Number cuts repeat: 3
value: 46.040541
Number Constraints Used in Cover:570
GRASP Method!
Number cuts repeat: 3
value: 46.040541
Number Constraints Used in Cover:571
GRASP Method!
Number cuts repeat: 1
value: 46.040541
Number Constraints Used in Cover:571
GRASP Method!
Number cuts repeat: 3
value: 46.040541
Number Constraints Used in Cover:571
GRASP Method!
Number cuts repeat: 4
value: 46.040541
Number Constraints Used in Cover:571
GRASP Method!
Number cuts repeat: 2
value: 46.040541
Number Constraints Used in Cover:571
GRASP Method!
Number cuts repeat: 4
value: 46.040541
Number Constraints Used in Cover:572
GRASP Method!
Number cuts repeat: 3
value: 46.040541
Number Constraints Used in Cover:572
GRASP Method!
Number cuts repeat: 2
value: 46.040541
Number Constraints Used in Cover:572
GRASP Method!
Number cuts repeat: 3
value: 46.040541
Number Constraints Used in Cover:572
GRASP Method!
Number cuts repeat: 2
value: 46.040541
Number Constraints Used in Cover:572
GRASP Method!
Number cuts repeat: 4
value: 46.040541
Number Constraints Used in Cover:572
GRASP Method!
Number cuts repeat: 3
value: 45.785714
Number Constraints Used in Cover:573
GRASP Method!
Number cuts repeat: 5
value: 45.785714
Number Constraints Used in Cover:577
GRASP Method!
Number cuts repeat: 3
value: 45.785714
Number Constraints Used in Cover:577
GRASP Method!
Number cuts repeat: 3
value: 45.785714
Number Cuts Final: 1136
